
Gurobi 11.0.1 (win64) logging started Thu Mar 14 02:31:05 2024

Set parameter LogFile to value "res/logfile/bppc4-08log.txt"
Gurobi Optimizer version 11.0.1 build v11.0.1rc0 (win64 - Windows 11.0 (22621.2))

CPU model: AMD Ryzen Threadripper PRO 5975WX 32-Cores, instruction set [SSE2|AVX|AVX2]
Thread count: 32 physical cores, 64 logical processors, using up to 10 threads

Optimize a model with 131 rows, 1456 columns and 25418 nonzeros
Model fingerprint: 0xf204e09e
Variable types: 2 continuous, 1454 integer (1454 binary)
Coefficient statistics:
  Matrix range     [1e+00, 3e+01]
  Objective range  [1e+00, 1e+00]
  Bounds range     [1e+00, 1e+00]
  RHS range        [1e+00, 1e+00]
Found heuristic solution: objective 157.0000000
Presolve removed 20 rows and 1 columns
Presolve time: 0.01s
Presolved: 111 rows, 1455 columns, 23964 nonzeros
Variable types: 0 continuous, 1455 integer (1454 binary)

Root relaxation: objective 5.159000e+01, 790 iterations, 0.03 seconds (0.04 work units)

    Nodes    |    Current Node    |     Objective Bounds      |     Work
 Expl Unexpl |  Obj  Depth IntInf | Incumbent    BestBd   Gap | It/Node Time

     0     0   51.59000    0   38  157.00000   51.59000  67.1%     -    0s
H    0     0                      61.0000000   51.59000  15.4%     -    0s
H    0     0                      60.0000000   51.59000  14.0%     -    0s
     0     0   51.59000    0   56   60.00000   51.59000  14.0%     -    0s
H    0     0                      59.0000000   51.59000  12.6%     -    0s
H    0     0                      58.0000000   51.59000  11.1%     -    0s
     0     0   51.59000    0   59   58.00000   51.59000  11.1%     -    0s
     0     0   52.00000    0   39   58.00000   52.00000  10.3%     -    0s
     0     0   52.00000    0   38   58.00000   52.00000  10.3%     -    0s
     0     0   52.00000    0   53   58.00000   52.00000  10.3%     -    0s
     0     0   52.00000    0   54   58.00000   52.00000  10.3%     -    0s
     0     0   52.00000    0   40   58.00000   52.00000  10.3%     -    0s
H    0     0                      57.0000000   52.00000  8.77%     -    0s
     0     0   52.00000    0   52   57.00000   52.00000  8.77%     -    0s
     0     0   52.00000    0   34   57.00000   52.00000  8.77%     -    0s
     0     0   52.00000    0   37   57.00000   52.00000  8.77%     -    0s
     0     0   52.00000    0   35   57.00000   52.00000  8.77%     -    0s
     0     0   52.00000    0   57   57.00000   52.00000  8.77%     -    0s
H    0     0                      56.0000000   52.00000  7.14%     -    0s
     0     0   52.00000    0   31   56.00000   52.00000  7.14%     -    0s
     0     0   52.00000    0   25   56.00000   52.00000  7.14%     -    0s
     0     2   52.00000    0   25   56.00000   52.00000  7.14%     -    0s
H   76    79                      55.0000000   52.00000  5.45%   140    1s
H  137   176                      54.0000000   52.00000  3.70%   103    2s
  2459  1820   53.00000  121   39   54.00000   52.00000  3.70%  69.2    5s
H 2546  1779                      53.0000000   52.00000  1.89%  22.4    7s
  2611  1779   52.00000   28  129   53.00000   52.00000  1.89%  38.8   10s
  3303  1748   52.00000   47   73   53.00000   52.00000  1.89%   116   15s
  4110  1572 infeasible   78        53.00000   52.00000  1.89%   185   20s
  4826  1243   52.00000   47   85   53.00000   52.00000  1.89%   232   26s
  5404  1387   52.00000   38  111   53.00000   52.00000  1.89%   251   30s
  6596  1433   52.00000   74   99   53.00000   52.00000  1.89%   273   37s
  7528  1275 infeasible   47        53.00000   52.00000  1.89%   289   40s
  8923  1250 infeasible   73        53.00000   52.00000  1.89%   317   47s
  9573  1193 infeasible   61        53.00000   52.00000  1.89%   327   51s
 10353  1189   52.00000   94  119   53.00000   52.00000  1.89%   337   55s
 11716   994   52.00000   51   93   53.00000   52.00000  1.89%   359   64s
 12410   995   52.00000   50   82   53.00000   52.00000  1.89%   372   68s
 13465   953 infeasible   82        53.00000   52.00000  1.89%   378   73s
 14087   825   52.00000   84  131   53.00000   52.00000  1.89%   382   78s
 15035   606   52.00000   52  126   53.00000   52.00000  1.89%   389   83s
 15846   460 infeasible   62        53.00000   52.00000  1.89%   397   91s
 16198   128   52.00000   66  137   53.00000   52.00000  1.89%   401   96s

Cutting planes:
  Cover: 127
  Clique: 23
  MIR: 412
  Mixing: 1
  StrongCG: 314
  Flow cover: 74
  GUB cover: 173
  Zero half: 20

Explored 17167 nodes (7169591 simplex iterations) in 99.47 seconds (372.21 work units)
Thread count was 10 (of 64 available processors)

Solution count 10: 53 54 55 ... 157

Optimal solution found (tolerance 1.00e-04)
Best objective 5.300000000000e+01, best bound 5.300000000000e+01, gap 0.0000%

User-callback calls 39293, time in user-callback 0.00 sec
